.Version 7.4.3 of ABINIT
.(sequential version, prepared for a x86_64_linux_gnu4.7 computer)

 ABINIT is a project of the Universite Catholique de Louvain,
 Corning Inc. and other collaborators, see ~abinit/doc/developers/contributors.txt .
 Please read ~abinit/doc/users/acknowledgments.html for suggested
 acknowledgments of the ABINIT effort.

.Starting date : Thu  9 Apr 2015.
- ( at 11h49 )

- input  file    -> in_PdHНH_md.txt
- output file    -> out_PdHНH_md.txt
- root for input  files -> iPdHHН
- root for output files -> oPdHHН

 Symmetries : space group P1 (#  1); Bravais aP (primitive triclinic)
   intxc =         0  ionmov =         9    iscf =         7 xclevel =         2
  lmnmax =         4   lnmax =         4   mband =        26  mffmem =         1
P  mgfft =        45   mkmem =        28 mpssoang=         4     mpw =      5532
  mqgrid =      3001   natom =         7    nfft =     91125    nkpt =        28
  nloalg =         4  nspden =         1 nspinor =         1  nsppol =         1
    nsym =         1  n1xccc =         0  ntypat =         2  occopt =         3
  Rough estimation (10% accuracy) of disk space for files :

------------- Echo of variables that govern the present computation ------------
-
- outvars: echo of selected default values
-   accesswff0 =  0 , fftalg0 =112 , wfoptalg0 =  0
-
- outvars: echo of global parameters not present in the input file
-  max_nthreads =    0
-
 -outvars: echo values of preprocessed input variables --------
            acell      7.6962876214E+00  7.6962876214E+00  7.6962876214E+00 Bohr
              amu      1.06000000E+02  2.00000000E+00
      chksymbreak           0
            dtion      2.50000000E+01
             ecut      4.00000000E+01 Hartree
           ionmov           9
           istwfk        2    0    0    0    0    0    0    0    0    0
                         0    0    0    0    0    0    0    0    0    0
                         0    0    0    0    0    0    0    9
              ixc          11
              kpt      0.00000000E+00  0.00000000E+00  0.00000000E+00
                       0.00000000E+00  0.00000000E+00  3.33333333E-01
                       0.00000000E+00  3.33333333E-01  0.00000000E+00
                       3.33333333E-01  0.00000000E+00  0.00000000E+00
                       1.66666667E-01  1.66666667E-01  1.66666667E-01
                       0.00000000E+00  3.33333333E-01  3.33333333E-01
                       3.33333333E-01  0.00000000E+00  3.33333333E-01
                       1.66666667E-01  1.66666667E-01  5.00000000E-01
                       0.00000000E+00  3.33333333E-01 -3.33333333E-01
                       3.33333333E-01  0.00000000E+00 -3.33333333E-01
                       1.66666667E-01  1.66666667E-01 -1.66666667E-01
                       3.33333333E-01  3.33333333E-01  0.00000000E+00
                       1.66666667E-01  5.00000000E-01  1.66666667E-01
                       5.00000000E-01  1.66666667E-01  1.66666667E-01
                       3.33333333E-01  3.33333333E-01  3.33333333E-01
                       1.66666667E-01  5.00000000E-01  5.00000000E-01
                       5.00000000E-01  1.66666667E-01  5.00000000E-01
                       3.33333333E-01  3.33333333E-01 -3.33333333E-01
                       1.66666667E-01  5.00000000E-01 -1.66666667E-01
                       5.00000000E-01  1.66666667E-01 -1.66666667E-01
                       3.33333333E-01 -3.33333333E-01  0.00000000E+00
                       1.66666667E-01 -1.66666667E-01  1.66666667E-01
                       5.00000000E-01  5.00000000E-01  1.66666667E-01
                       3.33333333E-01 -3.33333333E-01  3.33333333E-01
                       1.66666667E-01 -1.66666667E-01  5.00000000E-01
                      -1.66666667E-01  1.66666667E-01  1.66666667E-01
                      -3.33333333E-01  3.33333333E-01  3.33333333E-01
                       5.00000000E-01  5.00000000E-01  5.00000000E-01
         kptrlatt        0    3    3      3    0    3      3    3    0
          kptrlen      3.26525830E+01
P           mkmem          28
            natom           7
            nband          26
            ngfft          45      45      45
             nkpt          28
            nline           6
            nstep         500
             nsym           1
            ntime         800
           ntypat           2
              occ      2.000000  2.000000  2.000000  2.000000  2.000000  2.000000
                       2.000000  2.000000  2.000000  2.000000  2.000000  2.000000
                       2.000000  2.000000  2.000000  2.000000  2.000000  2.000000
                       2.000000  2.000000  2.000000  1.000000  0.000000  0.000000
                       0.000000  0.000000
                       2.000000  2.000000  2.000000  2.000000  2.000000  2.000000
                       2.000000  2.000000  2.000000  2.000000  2.000000  2.000000
                       2.000000  2.000000  2.000000  2.000000  2.000000  2.000000
                       2.000000  2.000000  2.000000  1.000000  0.000000  0.000000
                       0.000000  0.000000
                       2.000000  2.000000  2.000000  2.000000  2.000000  2.000000
                       2.000000  2.000000  2.000000  2.000000  2.000000  2.000000
                       2.000000  2.000000  2.000000  2.000000  2.000000  2.000000
                       2.000000  2.000000  2.000000  1.000000  0.000000  0.000000
                       0.000000  0.000000
                       2.000000  2.000000  2.000000  2.000000  2.000000  2.000000
                       2.000000  2.000000  2.000000  2.000000  2.000000  2.000000
                       2.000000  2.000000  2.000000  2.000000  2.000000  2.000000
                       2.000000  2.000000  2.000000  1.000000  0.000000  0.000000
                       0.000000  0.000000
                       2.000000  2.000000  2.000000  2.000000  2.000000  2.000000
                       2.000000  2.000000  2.000000  2.000000  2.000000  2.000000
                       2.000000  2.000000  2.000000  2.000000  2.000000  2.000000
                       2.000000  2.000000  2.000000  1.000000  0.000000  0.000000
                       0.000000  0.000000
                       2.000000  2.000000  2.000000  2.000000  2.000000  2.000000
                       2.000000  2.000000  2.000000  2.000000  2.000000  2.000000
                       2.000000  2.000000  2.000000  2.000000  2.000000  2.000000
                       2.000000  2.000000  2.000000  1.000000  0.000000  0.000000
                       0.000000  0.000000
                       2.000000  2.000000  2.000000  2.000000  2.000000  2.000000
                       2.000000  2.000000  2.000000  2.000000  2.000000  2.000000
                       2.000000  2.000000  2.000000  2.000000  2.000000  2.000000
                       2.000000  2.000000  2.000000  1.000000  0.000000  0.000000
                       0.000000  0.000000
                       2.000000  2.000000  2.000000  2.000000  2.000000  2.000000
                       2.000000  2.000000  2.000000  2.000000  2.000000  2.000000
                       2.000000  2.000000  2.000000  2.000000  2.000000  2.000000
                       2.000000  2.000000  2.000000  1.000000  0.000000  0.000000
                       0.000000  0.000000
                       2.000000  2.000000  2.000000  2.000000  2.000000  2.000000
                       2.000000  2.000000  2.000000  2.000000  2.000000  2.000000
                       2.000000  2.000000  2.000000  2.000000  2.000000  2.000000
                       2.000000  2.000000  2.000000  1.000000  0.000000  0.000000
                       0.000000  0.000000
                       2.000000  2.000000  2.000000  2.000000  2.000000  2.000000
                       2.000000  2.000000  2.000000  2.000000  2.000000  2.000000
                       2.000000  2.000000  2.000000  2.000000  2.000000  2.000000
                       2.000000  2.000000  2.000000  1.000000  0.000000  0.000000
                       0.000000  0.000000
                       2.000000  2.000000  2.000000  2.000000  2.000000  2.000000
                       2.000000  2.000000  2.000000  2.000000  2.000000  2.000000
                       2.000000  2.000000  2.000000  2.000000  2.000000  2.000000
                       2.000000  2.000000  2.000000  1.000000  0.000000  0.000000
                       0.000000  0.000000
                       2.000000  2.000000  2.000000  2.000000  2.000000  2.000000
                       2.000000  2.000000  2.000000  2.000000  2.000000  2.000000
                       2.000000  2.000000  2.000000  2.000000  2.000000  2.000000
                       2.000000  2.000000  2.000000  1.000000  0.000000  0.000000
                       0.000000  0.000000
                       2.000000  2.000000  2.000000  2.000000  2.000000  2.000000
[...]
                       2.000000  2.000000  2.000000  2.000000  2.000000  2.000000
                       2.000000  2.000000  2.000000  2.000000  2.000000  2.000000
                       2.000000  2.000000  2.000000  2.000000  2.000000  2.000000
                       2.000000  2.000000  2.000000  1.000000  0.000000  0.000000
                       0.000000  0.000000
                       2.000000  2.000000  2.000000  2.000000  2.000000  2.000000
                       2.000000  2.000000  2.000000  2.000000  2.000000  2.000000
                       2.000000  2.000000  2.000000  2.000000  2.000000  2.000000
                       2.000000  2.000000  2.000000  1.000000  0.000000  0.000000
                       0.000000  0.000000
                       2.000000  2.000000  2.000000  2.000000  2.000000  2.000000
                       2.000000  2.000000  2.000000  2.000000  2.000000  2.000000
                       2.000000  2.000000  2.000000  2.000000  2.000000  2.000000
                       2.000000  2.000000  2.000000  1.000000  0.000000  0.000000
                       0.000000  0.000000
           occopt           3
        optforces           1
           prtcml           1
           prtden           0
          spgroup           1
           toldff      5.00000000E-05
           tolmxf      0.00000000E+00
           tsmear      1.00000000E-03 Hartree
            typat      1  1  1  1  2  2  2
              wtk        0.01852    0.03704    0.03704    0.03704    0.03704    0.03704
                         0.03704    0.03704    0.03704    0.03704    0.03704    0.03704
                         0.03704    0.03704    0.03704    0.03704    0.03704    0.03704
                         0.03704    0.03704    0.03704    0.03704    0.03704    0.03704
                         0.03704    0.03704    0.03704    0.01852
           xangst      0.0000000000E+00  0.0000000000E+00  0.0000000000E+00
                       2.0363500000E+00  1.2469047547E-16  2.0363500000E+00
                       2.4937683290E-16  2.0363500000E+00  2.0363500000E+00
                       2.0363500000E+00  2.0363500000E+00  0.0000000000E+00
                       2.0363500000E+00  0.0000000000E+00  0.0000000000E+00
[...]
              amu      1.06000000E+02  2.00000000E+00
      chksymbreak           0
            dtion      2.50000000E+01
             ecut      4.00000000E+01 Hartree
           etotal     -1.1607454205E+02
            fcart     -6.3278183706E-03  4.0496706817E-03 -1.1009985555E-02
                       1.0811412406E-02  1.5149934000E-02  1.8530540016E-02
                      -1.7529032888E-02 -1.2727629987E-02 -1.1161326882E-03
                       1.4739669890E-02 -1.1472382154E-02  3.5783814465E-03
                      -3.8254129457E-04  2.3099102689E-03 -1.0607026713E-02
                      -7.6354953075E-04  2.4050298344E-03 -6.0063582864E-04
                      -5.4814021220E-04  2.8546735591E-04  1.2248593228E-03
           ionmov           9
           istwfk        2    0    0    0    0    0    0    0    0    0
                         0    0    0    0    0    0    0    0    0    0
                         0    0    0    0    0    0    0    9
              ixc          11
              kpt      0.00000000E+00  0.00000000E+00  0.00000000E+00
                       0.00000000E+00  0.00000000E+00  3.33333333E-01
                       0.00000000E+00  3.33333333E-01  0.00000000E+00
                       3.33333333E-01  0.00000000E+00  0.00000000E+00
                       1.66666667E-01  1.66666667E-01  1.66666667E-01
                       0.00000000E+00  3.33333333E-01  3.33333333E-01
                       3.33333333E-01  0.00000000E+00  3.33333333E-01
                       1.66666667E-01  1.66666667E-01  5.00000000E-01
                       0.00000000E+00  3.33333333E-01 -3.33333333E-01
                       3.33333333E-01  0.00000000E+00 -3.33333333E-01
                       1.66666667E-01  1.66666667E-01 -1.66666667E-01
                       3.33333333E-01  3.33333333E-01  0.00000000E+00
                       1.66666667E-01  5.00000000E-01  1.66666667E-01
                       5.00000000E-01  1.66666667E-01  1.66666667E-01
                       3.33333333E-01  3.33333333E-01  3.33333333E-01
                       1.66666667E-01  5.00000000E-01  5.00000000E-01
                       5.00000000E-01  1.66666667E-01  5.00000000E-01
                       3.33333333E-01  3.33333333E-01 -3.33333333E-01
                       1.66666667E-01  5.00000000E-01 -1.66666667E-01
                       5.00000000E-01  1.66666667E-01 -1.66666667E-01
                       3.33333333E-01 -3.33333333E-01  0.00000000E+00
                       1.66666667E-01 -1.66666667E-01  1.66666667E-01
                       5.00000000E-01  5.00000000E-01  1.66666667E-01
                       3.33333333E-01 -3.33333333E-01  3.33333333E-01
                       1.66666667E-01 -1.66666667E-01  5.00000000E-01
                      -1.66666667E-01  1.66666667E-01  1.66666667E-01
                      -3.33333333E-01  3.33333333E-01  3.33333333E-01
                       5.00000000E-01  5.00000000E-01  5.00000000E-01
         kptrlatt        0    3    3      3    0    3      3    3    0
          kptrlen      3.26525830E+01
P           mkmem          28
            natom           7
            nband          26
            ngfft          45      45      45
             nkpt          28
            nline           6
            nstep         500
             nsym           1
            ntime         800
           ntypat           2
              occ      2.000000  2.000000  2.000000  2.000000  2.000000  2.000000
                       2.000000  2.000000  2.000000  2.000000  2.000000  2.000000
                       2.000000  2.000000  2.000000  2.000000  2.000000  2.000000
                       1.999998  1.999994  1.999986  0.000000  0.000000  0.000000
                       0.000000  0.000000
                       2.000000  2.000000  2.000000  2.000000  2.000000  2.000000
                       2.000000  2.000000  2.000000  2.000000  2.000000  2.000000
                       2.000000  2.000000  2.000000  2.000000  2.000000  2.000000
                       2.000000  2.000000  2.000000  1.999989  0.000000  0.000000
                       0.000000  0.000000
                       2.000000  2.000000  2.000000  2.000000  2.000000  2.000000
                       2.000000  2.000000  2.000000  2.000000  2.000000  2.000000
                       2.000000  2.000000  2.000000  2.000000  2.000000  2.000000
                       2.000000  2.000000  2.000000  1.999960  0.000000  0.000000
                       0.000000  0.000000
                       2.000000  2.000000  2.000000  2.000000  2.000000  2.000000
                       2.000000  2.000000  2.000000  2.000000  2.000000  2.000000
                       2.000000  2.000000  2.000000  2.000000  2.000000  2.000000
                       2.000000  2.000000  2.000000  1.999994  0.000000  0.000000
                       0.000000  0.000000
                       2.000000  2.000000  2.000000  2.000000  2.000000  2.000000
                       2.000000  2.000000  2.000000  2.000000  2.000000  2.000000
                       2.000000  2.000000  2.000000  2.000000  2.000000  2.000000
                       2.000000  2.000000  2.000000  0.000000  0.000000  0.000000
                       0.000000  0.000000
                       2.000000  2.000000  2.000000  2.000000  2.000000  2.000000
                       2.000000  2.000000  2.000000  2.000000  2.000000  2.000000
                       2.000000  2.000000  2.000000  2.000000  2.000000  2.000000
                       2.000000  2.000000  2.000000  0.000000  0.000000  0.000000
                       0.000000  0.000000
                       2.000000  2.000000  2.000000  2.000000  2.000000  2.000000
                       2.000000  2.000000  2.000000  2.000000  2.000000  2.000000
                       2.000000  2.000000  2.000000  2.000000  2.000000  2.000000
                       2.000000  2.000000  2.000000  0.000002  0.000000  0.000000
                       0.000000  0.000000
                       2.000000  2.000000  2.000000  2.000000  2.000000  2.000000
                       2.000000  2.000000  2.000000  2.000000  2.000000  2.000000
                       2.000000  2.000000  2.000000  2.000000  2.000000  2.000000
                       2.000000  2.000000  2.000000  2.000000  0.000000  0.000000
                       0.000000  0.000000
                       2.000000  2.000000  2.000000  2.000000  2.000000  2.000000
                       2.000000  2.000000  2.000000  2.000000  2.000000  2.000000
                       2.000000  2.000000  2.000000  2.000000  2.000000  2.000000
                       2.000000  2.000000  2.000000  0.000000  0.000000  0.000000
                       0.000000  0.000000
                       2.000000  2.000000  2.000000  2.000000  2.000000  2.000000
                       2.000000  2.000000  2.000000  2.000000  2.000000  2.000000
                       2.000000  2.000000  2.000000  2.000000  2.000000  2.000000
                       2.000000  2.000000  2.000000  0.000000  0.000000  0.000000
                       0.000000  0.000000
                       2.000000  2.000000  2.000000  2.000000  2.000000  2.000000
                       2.000000  2.000000  2.000000  2.000000  2.000000  2.000000
                       2.000000  2.000000  2.000000  2.000000  2.000000  2.000000
                       2.000000  2.000000  2.000000  0.000000  0.000000  0.000000
                       0.000000  0.000000
                       2.000000  2.000000  2.000000  2.000000  2.000000  2.000000
                       2.000000  2.000000  2.000000  2.000000  2.000000  2.000000
                       2.000000  2.000000  2.000000  2.000000  2.000000  2.000000
                       2.000000  2.000000  2.000000  0.000000  0.000000  0.000000
                       0.000000  0.000000
                       2.000000  2.000000  2.000000  2.000000  2.000000  2.000000
[...]
                       2.000000  2.000000  2.000000  2.000000  2.000000  2.000000
                       2.000000  2.000000  2.000000  2.000000  2.000000  2.000000
                       2.000000  2.000000  2.000000  2.000000  2.000000  2.000000
                       2.000000  2.000000  2.000000  0.000000  0.000000  0.000000
                       0.000000  0.000000
                       2.000000  2.000000  2.000000  2.000000  2.000000  2.000000
                       2.000000  2.000000  2.000000  2.000000  2.000000  2.000000
                       2.000000  2.000000  2.000000  2.000000  2.000000  2.000000
                       2.000000  2.000000  2.000000  1.850865  0.002826  0.000000
                       0.000000  0.000000
                       2.000000  2.000000  2.000000  2.000000  2.000000  2.000000
                       2.000000  2.000000  2.000000  2.000000  2.000000  2.000000
                       2.000000  2.000000  2.000000  2.000000  2.000000  2.000000
                       2.000000  2.000000  2.000000  2.000000  2.000000  0.000001
                       0.000000  0.000000
           occopt           3
        optforces           1
           prtcml           1
           prtden           0
          spgroup           1
           strten     -3.2760323854E-04 -3.2999253982E-04 -3.8047443621E-04
                      -1.2207356781E-05 -7.5198301561E-06 -1.2594408805E-05
           toldff      5.00000000E-05
           tolmxf      0.00000000E+00
           tsmear      1.00000000E-03 Hartree
            typat      1  1  1  1  2  2  2
              vel     -7.3093684462E-05 -1.4284839156E-04  5.9716777613E-05
                       9.7063955464E-05 -4.0652383554E-05 -1.9883238683E-05
                       5.6935601318E-05 -4.4866305223E-05  5.6734127164E-05
                      -4.3578843401E-05 -2.0761946814E-04  1.9934402579E-05
                       1.4583365789E-03 -3.0852106050E-04  1.0499603939E-03
                       1.8435890047E-04 -5.3441579114E-04 -4.4165008831E-04
                       3.0791160889E-05 -2.6269705862E-04  7.3705658795E-04
              wtk        0.01852    0.03704    0.03704    0.03704    0.03704    0.03704
                         0.03704    0.03704    0.03704    0.03704    0.03704    0.03704
                         0.03704    0.03704    0.03704    0.03704    0.03704    0.03704
                         0.03704    0.03704    0.03704    0.03704    0.03704    0.03704
                         0.03704    0.03704    0.03704    0.01852
           xangst      4.4316053419E-02 -2.0240007543E-01  5.1457404525E-02
                       2.0420485953E+00 -2.7156953600E-01  2.0012305575E+00
                       1.1199852276E-01  1.8784417555E+00  2.0479236584E+00
                       2.0239992981E+00  1.8397934832E+00 -6.6105840333E-02
                       2.2409219051E+00 -4.9559964220E-01  3.4856823377E-01
                       1.1524284485E-01  1.6784453659E+00  3.7615559303E-02
                      -4.0651876983E-02 -6.6069003575E-02  2.0197069090E+00
            xcart      8.3745204252E-02 -3.8248071184E-01  9.7240402062E-02
                       3.8589125952E+00 -5.1319204908E-01  3.7817776825E+00
                       2.1164653531E-01  3.5497404745E+00  3.8700148554E+00
                       3.8248043666E+00  3.4767058243E+00 -1.2492193401E-01
                       4.2347286858E+00 -9.3654759532E-01  6.5869850046E-01
                       2.1777741554E-01  3.1718020706E+00  7.1083105418E-02
                      -7.6820914287E-02 -1.2485232263E-01  3.8166929267E+00
             xred      1.0881246696E-02 -4.9696779883E-02  1.2634715183E-02
                       5.0139921804E-01 -6.6680466521E-02  4.9137686487E-01
                       2.7499821436E-02  4.6122762677E-01  5.0284176550E-01
                       4.9696744129E-01  4.5173803206E-01 -1.6231453418E-02
                       5.5023004520E-01 -1.2168822702E-01  8.5586523381E-02
                       2.8296423711E-02  4.1212104156E-01  9.2360250701E-03
                      -9.9815544930E-03 -1.6222408617E-02  4.9591349940E-01
            znucl       46.00000    1.00000

-
-  as well as % of the time and number of calls for node 0-
-<BEGIN_TIMER mpi_nprocs = 1, omp_nthreads = 1, mpi_rank = 0>
- cpu_time =       419106.2, wall_time =       385050.5
-
-                                                                  (-1=no count)
- fourwf%(pot)              145239.033  34.7 145479.341  37.8       33285830      -1.00
- projbd                    107357.447  25.6  74067.256  19.2       55867148      -1.00
- nonlop(apply)             105749.309  25.2 105773.209  27.5       33285830      -1.00
- nonlop(forces)             20029.295   4.8  20033.693   5.2        4187456      -1.00
- fourwf%(den)                8230.260   2.0   8232.100   2.1        3556585      -1.00
- vtowfk(ssdiag)              5990.808   1.4   5090.009   1.3             -1      -1.00
- getghc-other                2319.957   0.6   2249.707   0.6             -1      -1.00
- nonlop(forstr)              2307.803   0.6   2307.465   0.6         494644      -1.00
- others (85)                 1289.195   0.3   1284.192   0.3             -1      -1.00
-<END_TIMER>
-
- subtotal                  398513.108  95.1 364516.972  94.7

- as well as % of the total time and number of calls

-<BEGIN_TIMER mpi_nprocs = 1, omp_nthreads = 1, mpi_rank = world>
- cpu_time =      419106.2, wall_time =      385050.5
-
-                                                                  (-1=no count)
- fourwf%(pot)              145239.033  34.7 145479.341  37.8       33285830      -1.00
- projbd                    107357.447  25.6  74067.256  19.2       55867148      -1.00
- nonlop(apply)             105749.309  25.2 105773.209  27.5       33285830      -1.00
- nonlop(forces)             20029.295   4.8  20033.693   5.2        4187456      -1.00
- fourwf%(den)                8230.260   2.0   8232.100   2.1        3556585      -1.00
- vtowfk(ssdiag)              5990.808   1.4   5090.009   1.3             -1      -1.00
- getghc-other                2319.957   0.6   2249.707   0.6             -1      -1.00
- nonlop(forstr)              2307.803   0.6   2307.465   0.6         494644      -1.00
- others (85)                 1289.195   0.3   1284.192   0.3             -1      -1.00
-<END_TIMER>

- subtotal                  398513.108  95.1 364516.972  94.7

 Suggested references for the acknowledgment of ABINIT usage.

 [1] Ab initio pseudopotentials for electronic structure calculations of poly-atomic systems,
 using density-functional theory.
 M. Fuchs, M. Scheffler, Comput. Phys. Commun. 119, 67 (1999).
 Comment : Some pseudopotential generated using the FHI code were used.

 [2] ABINIT : First-principles approach of materials and nanosystem properties.
 X. Gonze, B. Amadon, P.-M. Anglade, J.-M. Beuken, F. Bottin, P. Boulanger, F. Bruneval,
 D. Caliste, R. Caracas, M. Cote, T. Deutsch, L. Genovese, Ph. Ghosez, M. Giantomassi
 S. Goedecker, D.R. Hamann, P. Hermet, F. Jollet, G. Jomard, S. Leroux, M. Mancini, S. Mazevet,
 M.J.T. Oliveira, G. Onida, Y. Pouillon, T. Rangel, G.-M. Rignanese, D. Sangalli, R. Shaltaf,
 M. Torrent, M.J. Verstraete, G. Zerah, J.W. Zwanziger
 Computer Phys. Comm. 180, 2582-2615 (2009).
 Comment : the third generic paper describing the ABINIT project.
 Note that a version of this paper, that is not formatted for Computer Phys. Comm.
 The licence allows the authors to put it on the Web.

 [3] A brief introduction to the ABINIT software package.
 X. Gonze, G.-M. Rignanese, M. Verstraete, J.-M. Beuken, Y. Pouillon, R. Caracas, F. Jollet,
 M. Torrent, G. Zerah, M. Mikami, Ph. Ghosez, M. Veithen, J.-Y. Raty, V. Olevano, F. Bruneval,
 L. Reining, R. Godby, G. Onida, D.R. Hamann, and D.C. Allan.
 Z. Kristallogr. 220, 558-562 (2005).
 Comment : the second generic paper describing the ABINIT project. Note that this paper
 should be cited especially if you are using the GW part of ABINIT, as several authors
 of this part are not in the list of authors of the first or third paper.
 Note that it should not redistributed (Copyright by Oldenburg Wissenshaftverlag,
 the licence allows the authors to put it on the Web).

 And optionally :

 [4] First-principles computation of material properties : the ABINIT software project.
 X. Gonze, J.-M. Beuken, R. Caracas, F. Detraux, M. Fuchs, G.-M. Rignanese, L. Sindic,
 M. Verstraete, G. Zerah, F. Jollet, M. Torrent, A. Roy, M. Mikami, Ph. Ghosez, J.-Y. Raty, D.C. Allan.
 Comment : the original paper describing the ABINIT project.

 [5] Fast radix 2, 3, 4 and 5 kernels for Fast Fourier Transformations
 on computers with overlapping multiply-add instructions.
 S. Goedecker, SIAM J. on Scientific Computing 18, 1605 (1997).
-

 Calculation completed.
.Delivered    2 WARNINGs and   5 COMMENTs to log file.