.Version 7.4.3 of ABINIT
.(sequential version, prepared for a x86_64_linux_gnu4.7 computer)

 ABINIT is a project of the Universite Catholique de Louvain,
 Corning Inc. and other collaborators, see ~abinit/doc/developers/contributors.txt .
 Please read ~abinit/doc/users/acknowledgments.html for suggested
 acknowledgments of the ABINIT effort.

.Starting date : Tue 31 Mar 2015.
- ( at 15h52 )

- input  file    -> in_PdHH_md.txt
- output file    -> out_PdHH_md.txtB
- root for input  files -> iPdHH
- root for output files -> oPdHH

 Symmetries : space group P1 (#  1); Bravais aP (primitive triclinic)
   intxc =         0  ionmov =         9    iscf =         7 xclevel =         2
  lmnmax =         4   lnmax =         4   mband =        24  mffmem =         1
P  mgfft =        45   mkmem =        28 mpssoang=         4     mpw =      5532
  mqgrid =      3001   natom =         6    nfft =     91125    nkpt =        28
  nloalg =         4  nspden =         1 nspinor =         1  nsppol =         1
    nsym =         1  n1xccc =         0  ntypat =         2  occopt =         3
  Rough estimation (10% accuracy) of disk space for files :

------------- Echo of variables that govern the present computation ------------
-
- outvars: echo of selected default values
-   accesswff0 =  0 , fftalg0 =112 , wfoptalg0 =  0
-
- outvars: echo of global parameters not present in the input file
-  max_nthreads =    0
-
 -outvars: echo values of preprocessed input variables --------
            acell      7.6962876214E+00  7.6962876214E+00  7.6962876214E+00 Bohr
              amu      1.06000000E+02  2.00000000E+00
      chksymbreak           0
            dtion      2.50000000E+01
             ecut      4.00000000E+01 Hartree
           ionmov           9
           istwfk        2    0    0    0    0    0    0    0    0    0
                         0    0    0    0    0    0    0    0    0    0
                         0    0    0    0    0    0    0    9
              ixc          11
              kpt      0.00000000E+00  0.00000000E+00  0.00000000E+00
                       0.00000000E+00  0.00000000E+00  3.33333333E-01
                       0.00000000E+00  3.33333333E-01  0.00000000E+00
                       3.33333333E-01  0.00000000E+00  0.00000000E+00
                       1.66666667E-01  1.66666667E-01  1.66666667E-01
                       0.00000000E+00  3.33333333E-01  3.33333333E-01
                       3.33333333E-01  0.00000000E+00  3.33333333E-01
                       1.66666667E-01  1.66666667E-01  5.00000000E-01
                       0.00000000E+00  3.33333333E-01 -3.33333333E-01
                       3.33333333E-01  0.00000000E+00 -3.33333333E-01
                       1.66666667E-01  1.66666667E-01 -1.66666667E-01
                       3.33333333E-01  3.33333333E-01  0.00000000E+00
                       1.66666667E-01  5.00000000E-01  1.66666667E-01
                       5.00000000E-01  1.66666667E-01  1.66666667E-01
                       3.33333333E-01  3.33333333E-01  3.33333333E-01
                       1.66666667E-01  5.00000000E-01  5.00000000E-01
                       5.00000000E-01  1.66666667E-01  5.00000000E-01
                       3.33333333E-01  3.33333333E-01 -3.33333333E-01
                       1.66666667E-01  5.00000000E-01 -1.66666667E-01
                       5.00000000E-01  1.66666667E-01 -1.66666667E-01
                       3.33333333E-01 -3.33333333E-01  0.00000000E+00
                       1.66666667E-01 -1.66666667E-01  1.66666667E-01
                       5.00000000E-01  5.00000000E-01  1.66666667E-01
                       3.33333333E-01 -3.33333333E-01  3.33333333E-01
                       1.66666667E-01 -1.66666667E-01  5.00000000E-01
                      -1.66666667E-01  1.66666667E-01  1.66666667E-01
                      -3.33333333E-01  3.33333333E-01  3.33333333E-01
                       5.00000000E-01  5.00000000E-01  5.00000000E-01
         kptrlatt        0    3    3      3    0    3      3    3    0
          kptrlen      3.26525830E+01
P           mkmem          28
            natom           6
            nband          24
            ngfft          45      45      45
             nkpt          28
            nline           6
            nstep         500
             nsym           1
            ntime         800
           ntypat           2
              occ      2.000000  2.000000  2.000000  2.000000  2.000000  2.000000
                       2.000000  2.000000  2.000000  2.000000  2.000000  2.000000
                       2.000000  2.000000  2.000000  2.000000  2.000000  2.000000
                       2.000000  2.000000  2.000000  0.000000  0.000000  0.000000
                       2.000000  2.000000  2.000000  2.000000  2.000000  2.000000
                       2.000000  2.000000  2.000000  2.000000  2.000000  2.000000
                       2.000000  2.000000  2.000000  2.000000  2.000000  2.000000
                       2.000000  2.000000  2.000000  0.000000  0.000000  0.000000
                       2.000000  2.000000  2.000000  2.000000  2.000000  2.000000
                       2.000000  2.000000  2.000000  2.000000  2.000000  2.000000
                       2.000000  2.000000  2.000000  2.000000  2.000000  2.000000
                       2.000000  2.000000  2.000000  0.000000  0.000000  0.000000
                       2.000000  2.000000  2.000000  2.000000  2.000000  2.000000
                       2.000000  2.000000  2.000000  2.000000  2.000000  2.000000
                       2.000000  2.000000  2.000000  2.000000  2.000000  2.000000
                       2.000000  2.000000  2.000000  0.000000  0.000000  0.000000
                       2.000000  2.000000  2.000000  2.000000  2.000000  2.000000
                       2.000000  2.000000  2.000000  2.000000  2.000000  2.000000
                       2.000000  2.000000  2.000000  2.000000  2.000000  2.000000
                       2.000000  2.000000  2.000000  0.000000  0.000000  0.000000
                       2.000000  2.000000  2.000000  2.000000  2.000000  2.000000
                       2.000000  2.000000  2.000000  2.000000  2.000000  2.000000
                       2.000000  2.000000  2.000000  2.000000  2.000000  2.000000
                       2.000000  2.000000  2.000000  0.000000  0.000000  0.000000
                       2.000000  2.000000  2.000000  2.000000  2.000000  2.000000
                       2.000000  2.000000  2.000000  2.000000  2.000000  2.000000
                       2.000000  2.000000  2.000000  2.000000  2.000000  2.000000
                       2.000000  2.000000  2.000000  0.000000  0.000000  0.000000
                       2.000000  2.000000  2.000000  2.000000  2.000000  2.000000
                       2.000000  2.000000  2.000000  2.000000  2.000000  2.000000
                       2.000000  2.000000  2.000000  2.000000  2.000000  2.000000
                       2.000000  2.000000  2.000000  0.000000  0.000000  0.000000
                       2.000000  2.000000  2.000000  2.000000  2.000000  2.000000
                       2.000000  2.000000  2.000000  2.000000  2.000000  2.000000
                       2.000000  2.000000  2.000000  2.000000  2.000000  2.000000
                       2.000000  2.000000  2.000000  0.000000  0.000000  0.000000
                       2.000000  2.000000  2.000000  2.000000  2.000000  2.000000
                       2.000000  2.000000  2.000000  2.000000  2.000000  2.000000
                       2.000000  2.000000  2.000000  2.000000  2.000000  2.000000
                       2.000000  2.000000  2.000000  0.000000  0.000000  0.000000
                       2.000000  2.000000  2.000000  2.000000  2.000000  2.000000
                       2.000000  2.000000  2.000000  2.000000  2.000000  2.000000
                       2.000000  2.000000  2.000000  2.000000  2.000000  2.000000
                       2.000000  2.000000  2.000000  0.000000  0.000000  0.000000
                       2.000000  2.000000  2.000000  2.000000  2.000000  2.000000
                       2.000000  2.000000  2.000000  2.000000  2.000000  2.000000
                       2.000000  2.000000  2.000000  2.000000  2.000000  2.000000
                       2.000000  2.000000  2.000000  0.000000  0.000000  0.000000
                       2.000000  2.000000  2.000000  2.000000  2.000000  2.000000
                       2.000000  2.000000  2.000000  2.000000  2.000000  2.000000
                       2.000000  2.000000  2.000000  2.000000  2.000000  2.000000
                       2.000000  2.000000  2.000000  0.000000  0.000000  0.000000
                       2.000000  2.000000  2.000000  2.000000  2.000000  2.000000
                       2.000000  2.000000  2.000000  2.000000  2.000000  2.000000
                       2.000000  2.000000  2.000000  2.000000  2.000000  2.000000
                       2.000000  2.000000  2.000000  0.000000  0.000000  0.000000
                       2.000000  2.000000  2.000000  2.000000  2.000000  2.000000
                       2.000000  2.000000  2.000000  2.000000  2.000000  2.000000
                       2.000000  2.000000  2.000000  2.000000  2.000000  2.000000
                       2.000000  2.000000  2.000000  0.000000  0.000000  0.000000
                       2.000000  2.000000  2.000000  2.000000  2.000000  2.000000
[...]
                       2.000000  2.000000  2.000000  2.000000  2.000000  2.000000
                       2.000000  2.000000  2.000000  2.000000  2.000000  2.000000
                       2.000000  2.000000  2.000000  0.000000  0.000000  0.000000
                       2.000000  2.000000  2.000000  2.000000  2.000000  2.000000
                       2.000000  2.000000  2.000000  2.000000  2.000000  2.000000
                       2.000000  2.000000  2.000000  2.000000  2.000000  2.000000
                       2.000000  2.000000  2.000000  0.000000  0.000000  0.000000
                       2.000000  2.000000  2.000000  2.000000  2.000000  2.000000
                       2.000000  2.000000  2.000000  2.000000  2.000000  2.000000
                       2.000000  2.000000  2.000000  2.000000  2.000000  2.000000
                       2.000000  2.000000  2.000000  0.000000  0.000000  0.000000
                       2.000000  2.000000  2.000000  2.000000  2.000000  2.000000
                       2.000000  2.000000  2.000000  2.000000  2.000000  2.000000
                       2.000000  2.000000  2.000000  2.000000  2.000000  2.000000
                       2.000000  2.000000  2.000000  0.000000  0.000000  0.000000
           occopt           3
        optforces           1
           prtcml           1
           prtden           0
          spgroup           1
           toldff      5.00000000E-05
           tolmxf      0.00000000E+00
           tsmear      1.00000000E-03 Hartree
            typat      1  1  1  1  2  2
              wtk        0.01852    0.03704    0.03704    0.03704    0.03704    0.03704
                         0.03704    0.03704    0.03704    0.03704    0.03704    0.03704
[...]
            fcart     -1.8827306522E-03  9.9206179727E-03  1.6468705315E-03
                      -3.8806601965E-03  8.9301805810E-03 -9.3759475610E-03
                       1.7660279158E-02 -8.3203822209E-03  7.5430802502E-03
                      -1.1304415456E-02 -9.9998391294E-03 -1.5433969088E-03
                      -3.1206980472E-03 -8.4046839451E-04  1.1485243527E-03
                       2.5282251941E-03  3.0989119110E-04  5.8086933538E-04
           ionmov           9
           istwfk        2    0    0    0    0    0    0    0    0    0
                         0    0    0    0    0    0    0    0    0    0
                         0    0    0    0    0    0    0    9
              ixc          11
              kpt      0.00000000E+00  0.00000000E+00  0.00000000E+00
                       0.00000000E+00  0.00000000E+00  3.33333333E-01
                       0.00000000E+00  3.33333333E-01  0.00000000E+00
                       3.33333333E-01  0.00000000E+00  0.00000000E+00
                       1.66666667E-01  1.66666667E-01  1.66666667E-01
                       0.00000000E+00  3.33333333E-01  3.33333333E-01
                       3.33333333E-01  0.00000000E+00  3.33333333E-01
                       1.66666667E-01  1.66666667E-01  5.00000000E-01
                       0.00000000E+00  3.33333333E-01 -3.33333333E-01
                       3.33333333E-01  0.00000000E+00 -3.33333333E-01
                       1.66666667E-01  1.66666667E-01 -1.66666667E-01
                       3.33333333E-01  3.33333333E-01  0.00000000E+00
                       1.66666667E-01  5.00000000E-01  1.66666667E-01
                       5.00000000E-01  1.66666667E-01  1.66666667E-01
                       3.33333333E-01  3.33333333E-01  3.33333333E-01
                       1.66666667E-01  5.00000000E-01  5.00000000E-01
                       5.00000000E-01  1.66666667E-01  5.00000000E-01
                       3.33333333E-01  3.33333333E-01 -3.33333333E-01
                       1.66666667E-01  5.00000000E-01 -1.66666667E-01
                       5.00000000E-01  1.66666667E-01 -1.66666667E-01
                       3.33333333E-01 -3.33333333E-01  0.00000000E+00
                       1.66666667E-01 -1.66666667E-01  1.66666667E-01
                       5.00000000E-01  5.00000000E-01  1.66666667E-01
                       3.33333333E-01 -3.33333333E-01  3.33333333E-01
                       1.66666667E-01 -1.66666667E-01  5.00000000E-01
                      -1.66666667E-01  1.66666667E-01  1.66666667E-01
                      -3.33333333E-01  3.33333333E-01  3.33333333E-01
                       5.00000000E-01  5.00000000E-01  5.00000000E-01
         kptrlatt        0    3    3      3    0    3      3    3    0
          kptrlen      3.26525830E+01
P           mkmem          28
            natom           6
            nband          24
            ngfft          45      45      45
             nkpt          28
            nline           6
            nstep         500
             nsym           1
            ntime         800
           ntypat           2
              occ      2.000000  2.000000  2.000000  2.000000  2.000000  2.000000
                       2.000000  2.000000  2.000000  2.000000  2.000000  2.000000
                       2.000000  1.999993  1.999930  1.999723  1.475218  1.009544
                       0.594469  0.302545  0.000034  0.000000  0.000000  0.000000
                       2.000000  2.000000  2.000000  2.000000  2.000000  2.000000
                       2.000000  2.000000  2.000000  2.000000  2.000000  2.000000
                       2.000000  2.000000  2.000000  2.000000  2.000000  2.000000
                       2.000000  2.000000  1.999734  0.000019  0.000000  0.000000
                       2.000000  2.000000  2.000000  2.000000  2.000000  2.000000
                       2.000000  2.000000  2.000000  2.000000  2.000000  2.000000
                       2.000000  2.000000  2.000000  2.000000  2.000000  2.000000
                       2.000000  2.000000  0.442056  0.326912  0.000000  0.000000
                       2.000000  2.000000  2.000000  2.000000  2.000000  2.000000
                       2.000000  2.000000  2.000000  2.000000  2.000000  2.000000
                       2.000000  2.000000  2.000000  2.000000  2.000000  2.000000
                       2.000000  2.000000  0.808957  0.351384  0.000000  0.000000
                       2.000000  2.000000  2.000000  2.000000  2.000000  2.000000
                       2.000000  2.000000  2.000000  2.000000  2.000000  2.000000
                       2.000000  2.000000  2.000000  2.000000  2.000000  2.000000
                       1.999788  1.992805  1.708870  0.000000  0.000000  0.000000
                       2.000000  2.000000  2.000000  2.000000  2.000000  2.000000
                       2.000000  2.000000  2.000000  2.000000  2.000000  2.000000
                       2.000000  2.000000  2.000000  2.000000  2.000000  2.000000
                       2.000000  2.000000  2.000000  0.000000  0.000000  0.000000
                       2.000000  2.000000  2.000000  2.000000  2.000000  2.000000
                       2.000000  2.000000  2.000000  2.000000  2.000000  2.000000
                       2.000000  2.000000  2.000000  2.000000  2.000000  2.000000
                       2.000000  2.000000  2.000000  0.000000  0.000000  0.000000
                       2.000000  2.000000  2.000000  2.000000  2.000000  2.000000
                       2.000000  2.000000  2.000000  2.000000  2.000000  2.000000
                       2.000000  2.000000  2.000000  2.000000  2.000000  2.000000
                       2.000000  2.000000  1.999999  1.869679  0.000000  0.000000
                       2.000000  2.000000  2.000000  2.000000  2.000000  2.000000
                       2.000000  2.000000  2.000000  2.000000  2.000000  2.000000
                       2.000000  2.000000  2.000000  2.000000  2.000000  2.000000
                       2.000000  2.000000  2.000000  0.000000  0.000000  0.000000
                       2.000000  2.000000  2.000000  2.000000  2.000000  2.000000
                       2.000000  2.000000  2.000000  2.000000  2.000000  2.000000
                       2.000000  2.000000  2.000000  2.000000  2.000000  2.000000
                       2.000000  2.000000  2.000000  0.000000  0.000000  0.000000
                       2.000000  2.000000  2.000000  2.000000  2.000000  2.000000
                       2.000000  2.000000  2.000000  2.000000  2.000000  2.000000
                       2.000000  2.000000  2.000000  2.000000  2.000000  2.000000
                       1.999756  1.984140  1.540692  0.000000  0.000000  0.000000
                       2.000000  2.000000  2.000000  2.000000  2.000000  2.000000
                       2.000000  2.000000  2.000000  2.000000  2.000000  2.000000
                       2.000000  2.000000  2.000000  2.000000  2.000000  2.000000
                       2.000000  2.000000  2.000000  0.000000  0.000000  0.000000
                       2.000000  2.000000  2.000000  2.000000  2.000000  2.000000
                       2.000000  2.000000  2.000000  2.000000  2.000000  2.000000
                       2.000000  2.000000  2.000000  2.000000  2.000000  2.000000
                       2.000000  2.000000  1.999970  1.999678  0.000000  0.000000
                       2.000000  2.000000  2.000000  2.000000  2.000000  2.000000
                       2.000000  2.000000  2.000000  2.000000  2.000000  2.000000
                       2.000000  2.000000  2.000000  2.000000  2.000000  2.000000
                       2.000000  2.000000  1.999974  1.999824  0.000000  0.000000
                       2.000000  2.000000  2.000000  2.000000  2.000000  2.000000
                       2.000000  2.000000  2.000000  2.000000  2.000000  2.000000
                       2.000000  2.000000  2.000000  2.000000  2.000000  2.000000
                       1.999993  1.999873  1.998444  0.000000  0.000000  0.000000
                       2.000000  2.000000  2.000000  2.000000  2.000000  2.000000
[...]
                       2.000000  2.000000  2.000000  2.000000  2.000000  2.000000
                       2.000000  2.000000  2.000000  2.000000  2.000000  2.000000
                       2.000000  2.000000  1.999999  1.870174  0.000000  0.000000
                       2.000000  2.000000  2.000000  2.000000  2.000000  2.000000
                       2.000000  2.000000  2.000000  2.000000  2.000000  2.000000
                       2.000000  2.000000  2.000000  2.000000  2.000000  2.000000
                       1.998871  1.976998  1.860556  0.000000  0.000000  0.000000
                       2.000000  2.000000  2.000000  2.000000  2.000000  2.000000
                       2.000000  2.000000  2.000000  2.000000  2.000000  2.000000
                       2.000000  2.000000  2.000000  2.000000  2.000000  2.000000
                       1.999958  1.999643  1.998832  0.000000  0.000000  0.000000
                       2.000000  2.000000  2.000000  2.000000  2.000000  2.000000
                       2.000000  2.000000  2.000000  2.000000  2.000000  2.000000
                       2.000000  2.000000  2.000000  1.999999  1.999997  1.999996
                       1.999553  1.999354  1.998651  1.997132  0.000000  0.000000
           occopt           3
        optforces           1
           prtcml           1
           prtden           0
          spgroup           1
           strten     -7.7724066406E-05 -6.3447445947E-05 -4.5154312926E-05
                       9.7441221373E-06 -4.8250652304E-06 -2.2265408848E-06
           toldff      5.00000000E-05
           tolmxf      0.00000000E+00
           tsmear      1.00000000E-03 Hartree
            typat      1  1  1  1  2  2
              vel      1.0511090549E-04  7.6378429195E-05  2.8650758636E-05
                       1.0060165365E-04 -1.8267868596E-04  1.5867820609E-04
                       6.0134280995E-05  9.5516522195E-05  9.2270538078E-05
                      -2.0699449480E-04 -5.1678188419E-05  6.4619124316E-05
                      -4.7521179535E-05  1.6696169526E-04  8.8483916739E-05
                       1.0918780682E-03  8.2414979820E-04 -4.0421884671E-04
              wtk        0.01852    0.03704    0.03704    0.03704    0.03704    0.03704
                         0.03704    0.03704    0.03704    0.03704    0.03704    0.03704
                         0.03704    0.03704    0.03704    0.03704    0.03704    0.03704
                         0.03704    0.03704    0.03704    0.03704    0.03704    0.03704
                         0.03704    0.03704    0.03704    0.01852
           xangst      1.0384408035E-01  1.6484310447E-01  9.0046661602E-03
                       2.0814344014E+00  1.6304166867E-01  2.1059318985E+00
                      -3.4374040865E-02  2.2724526032E+00  1.9955455336E+00
                       2.1269421981E+00  2.2723342704E+00  3.5901909248E-02
                       2.3535028795E+00  3.9093255433E-01  1.0142981515E-01
                      -9.2120589891E-02  2.0833767350E+00 -2.9016741506E-01
            xcart      1.9623687239E-01  3.1150832235E-01  1.7016352961E-02
                       3.9333409821E+00  3.0810410204E-01  3.9796345426E+00
                      -6.4957523316E-02  4.2943130699E+00  3.7710345442E+00
                       4.0193382548E+00  4.2940894535E+00  6.7844776126E-02
                       4.4474758953E+00  7.3875546412E-01  1.9167457234E-01
                      -1.7408268609E-01  3.9370114608E+00 -5.4833694716E-01
             xred      2.5497601187E-02  4.0475140441E-02  2.2109819432E-03
                       5.1106990482E-01  4.0032820653E-02  5.1708495555E-01
                      -8.4401111953E-03  5.5797200952E-01  4.8998097911E-01
                       5.2224376901E-01  5.5794295441E-01  8.8152599621E-03
                       5.7787288029E-01  9.5988546746E-02  2.4904808886E-02
                      -2.2619046306E-02  5.1154682030E-01 -7.1246940620E-02
            znucl       46.00000    1.00000

-
-  as well as % of the time and number of calls for node 0-
-<BEGIN_TIMER mpi_nprocs = 1, omp_nthreads = 1, mpi_rank = 0>
- cpu_time =       394194.5, wall_time =       354038.1
-
-                                                                  (-1=no count)
- fourwf%(pot)              150517.844  38.2 150593.128  42.5       35416049      -1.00
- nonlop(apply)             100310.828  25.4 100329.535  28.3       35416049      -1.00
- projbd                     85368.277  21.7  46279.555  13.1       59760226      -1.00
- nonlop(forces)             19231.825   4.9  19230.774   5.4        4460736      -1.00
- fourwf%(den)                9048.982   2.3   9047.632   2.6        3976955      -1.00
- vtowfk(ssdiag)              5484.518   1.4   4599.675   1.3             -1      -1.00
- nonlop(forstr)              2006.743   0.5   2009.081   0.6         479318      -1.00
- getghc-other                1877.008   0.5   1854.684   0.5             -1      -1.00
- others (85)                 1312.758   0.3   1310.317   0.4             -1      -1.00
-<END_TIMER>
-
- subtotal                  375158.783  95.2 335254.381  94.7

- as well as % of the total time and number of calls

-<BEGIN_TIMER mpi_nprocs = 1, omp_nthreads = 1, mpi_rank = world>
- cpu_time =      394194.5, wall_time =      354038.1
-
-                                                                  (-1=no count)
- fourwf%(pot)              150517.844  38.2 150593.128  42.5       35416049      -1.00
- nonlop(apply)             100310.828  25.4 100329.535  28.3       35416049      -1.00
- projbd                     85368.277  21.7  46279.555  13.1       59760226      -1.00
- nonlop(forces)             19231.825   4.9  19230.774   5.4        4460736      -1.00
- fourwf%(den)                9048.982   2.3   9047.632   2.6        3976955      -1.00
- vtowfk(ssdiag)              5484.518   1.4   4599.675   1.3             -1      -1.00
- nonlop(forstr)              2006.743   0.5   2009.081   0.6         479318      -1.00
- getghc-other                1877.008   0.5   1854.684   0.5             -1      -1.00
- others (85)                 1312.758   0.3   1310.317   0.4             -1      -1.00
-<END_TIMER>

- subtotal                  375158.783  95.2 335254.381  94.7

 Suggested references for the acknowledgment of ABINIT usage.

 [1] Ab initio pseudopotentials for electronic structure calculations of poly-atomic systems,
 using density-functional theory.
 M. Fuchs, M. Scheffler, Comput. Phys. Commun. 119, 67 (1999).
 Comment : Some pseudopotential generated using the FHI code were used.

 [2] ABINIT : First-principles approach of materials and nanosystem properties.
 X. Gonze, B. Amadon, P.-M. Anglade, J.-M. Beuken, F. Bottin, P. Boulanger, F. Bruneval,
 D. Caliste, R. Caracas, M. Cote, T. Deutsch, L. Genovese, Ph. Ghosez, M. Giantomassi
 S. Goedecker, D.R. Hamann, P. Hermet, F. Jollet, G. Jomard, S. Leroux, M. Mancini, S. Mazevet,
 M.J.T. Oliveira, G. Onida, Y. Pouillon, T. Rangel, G.-M. Rignanese, D. Sangalli, R. Shaltaf,
 M. Torrent, M.J. Verstraete, G. Zerah, J.W. Zwanziger
 Computer Phys. Comm. 180, 2582-2615 (2009).
 Comment : the third generic paper describing the ABINIT project.
 Note that a version of this paper, that is not formatted for Computer Phys. Comm.
 The licence allows the authors to put it on the Web.

 [3] A brief introduction to the ABINIT software package.
 X. Gonze, G.-M. Rignanese, M. Verstraete, J.-M. Beuken, Y. Pouillon, R. Caracas, F. Jollet,
 M. Torrent, G. Zerah, M. Mikami, Ph. Ghosez, M. Veithen, J.-Y. Raty, V. Olevano, F. Bruneval,
 L. Reining, R. Godby, G. Onida, D.R. Hamann, and D.C. Allan.
 Z. Kristallogr. 220, 558-562 (2005).
 Comment : the second generic paper describing the ABINIT project. Note that this paper
 should be cited especially if you are using the GW part of ABINIT, as several authors
 of this part are not in the list of authors of the first or third paper.
 Note that it should not redistributed (Copyright by Oldenburg Wissenshaftverlag,
 the licence allows the authors to put it on the Web).

 And optionally :

 [4] First-principles computation of material properties : the ABINIT software project.
 X. Gonze, J.-M. Beuken, R. Caracas, F. Detraux, M. Fuchs, G.-M. Rignanese, L. Sindic,
 M. Verstraete, G. Zerah, F. Jollet, M. Torrent, A. Roy, M. Mikami, Ph. Ghosez, J.-Y. Raty, D.C. Allan.
 Comment : the original paper describing the ABINIT project.

 [5] Fast radix 2, 3, 4 and 5 kernels for Fast Fourier Transformations
 on computers with overlapping multiply-add instructions.
 S. Goedecker, SIAM J. on Scientific Computing 18, 1605 (1997).
-

 Calculation completed.
.Delivered    5 WARNINGs and   5 COMMENTs to log file.