.Version 7.10.2 of ABINIT
.(sequential version, prepared for a i686_linux_gnu4.6 computer)

 ABINIT is a project of the Universite Catholique de Louvain,
 Corning Inc. and other collaborators, see ~abinit/doc/developers/contributors.txt .
 Please read ~abinit/doc/users/acknowledgments.html for suggested
 acknowledgments of the ABINIT effort.

.Starting date : Sat  6 Jun 2015.
- ( at 05h56 )

- input  file    -> in_PdH4_md.txt
- output file    -> out_PdH4_md.txt
- root for input  files -> iPdHH
- root for output files -> oPdHH

 Symmetries : space group P1 (#  1); Bravais aP (primitive triclinic)
   intxc =         0  ionmov =         9    iscf =         7 xclevel =         2
  lmnmax =         4   lnmax =         4   mband =        26  mffmem =         1
P  mgfft =        48   mkmem =        28 mpssoang=         4     mpw =      5900
  mqgrid =      3001   natom =         8    nfft =    110592    nkpt =        28
  nloalg =         4  nspden =         1 nspinor =         1  nsppol =         1
    nsym =         1  n1xccc =         0  ntypat =         2  occopt =         3
  Rough estimation (10% accuracy) of disk space for files :

------------- Echo of variables that govern the present computation ------------
-
- outvars: echo of selected default values
-   accesswff0 =  0 , fftalg0 =112 , wfoptalg0 =  0
-
- outvars: echo of global parameters not present in the input file
-  max_nthreads =    0
-
 -outvars: echo values of preprocessed input variables --------
            acell      7.8669298912E+00  7.8669298912E+00  7.8669298912E+00 Bohr
              amu      1.06000000E+02  2.00000000E+00
      chksymbreak           0
            dtion      2.50000000E+01
             ecut      4.00000000E+01 Hartree
-          fftalg         112
           ionmov           9
           istwfk        2    0    0    0    0    0    0    0    0    0
                         0    0    0    0    0    0    0    0    0    0
                         0    0    0    0    0    0    0    9
              ixc          11
              kpt      0.00000000E+00  0.00000000E+00  0.00000000E+00
                       0.00000000E+00  0.00000000E+00  3.33333333E-01
                       0.00000000E+00  3.33333333E-01  0.00000000E+00
                       3.33333333E-01  0.00000000E+00  0.00000000E+00
                       1.66666667E-01  1.66666667E-01  1.66666667E-01
                       0.00000000E+00  3.33333333E-01  3.33333333E-01
                       3.33333333E-01  0.00000000E+00  3.33333333E-01
                       1.66666667E-01  1.66666667E-01  5.00000000E-01
                       0.00000000E+00  3.33333333E-01 -3.33333333E-01
                       3.33333333E-01  0.00000000E+00 -3.33333333E-01
                       1.66666667E-01  1.66666667E-01 -1.66666667E-01
                       3.33333333E-01  3.33333333E-01  0.00000000E+00
                       1.66666667E-01  5.00000000E-01  1.66666667E-01
                       5.00000000E-01  1.66666667E-01  1.66666667E-01
                       3.33333333E-01  3.33333333E-01  3.33333333E-01
                       1.66666667E-01  5.00000000E-01  5.00000000E-01
                       5.00000000E-01  1.66666667E-01  5.00000000E-01
                       3.33333333E-01  3.33333333E-01 -3.33333333E-01
                       1.66666667E-01  5.00000000E-01 -1.66666667E-01
                       5.00000000E-01  1.66666667E-01 -1.66666667E-01
                       3.33333333E-01 -3.33333333E-01  0.00000000E+00
                       1.66666667E-01 -1.66666667E-01  1.66666667E-01
                       5.00000000E-01  5.00000000E-01  1.66666667E-01
                       3.33333333E-01 -3.33333333E-01  3.33333333E-01
                       1.66666667E-01 -1.66666667E-01  5.00000000E-01
                      -1.66666667E-01  1.66666667E-01  1.66666667E-01
                      -3.33333333E-01  3.33333333E-01  3.33333333E-01
                       5.00000000E-01  5.00000000E-01  5.00000000E-01
         kptrlatt        0    3    3      3    0    3      3    3    0
          kptrlen      3.33765568E+01
P           mkmem          28
            natom           8
            nband          26
            ngfft          48      48      48
             nkpt          28
            nline           6
            nstep         500
             nsym           1
            ntime         800
           ntypat           2
              occ      2.000000  2.000000  2.000000  2.000000  2.000000  2.000000
                       2.000000  2.000000  2.000000  2.000000  2.000000  2.000000
                       2.000000  2.000000  2.000000  2.000000  2.000000  2.000000
                       2.000000  2.000000  2.000000  2.000000  0.000000  0.000000
                       0.000000  0.000000
                       2.000000  2.000000  2.000000  2.000000  2.000000  2.000000
                       2.000000  2.000000  2.000000  2.000000  2.000000  2.000000
                       2.000000  2.000000  2.000000  2.000000  2.000000  2.000000
                       2.000000  2.000000  2.000000  2.000000  0.000000  0.000000
                       0.000000  0.000000
                       2.000000  2.000000  2.000000  2.000000  2.000000  2.000000
                       2.000000  2.000000  2.000000  2.000000  2.000000  2.000000
                       2.000000  2.000000  2.000000  2.000000  2.000000  2.000000
                       2.000000  2.000000  2.000000  2.000000  0.000000  0.000000
                       0.000000  0.000000
                       2.000000  2.000000  2.000000  2.000000  2.000000  2.000000
                       2.000000  2.000000  2.000000  2.000000  2.000000  2.000000
                       2.000000  2.000000  2.000000  2.000000  2.000000  2.000000
                       2.000000  2.000000  2.000000  2.000000  0.000000  0.000000
                       0.000000  0.000000
                       2.000000  2.000000  2.000000  2.000000  2.000000  2.000000
                       2.000000  2.000000  2.000000  2.000000  2.000000  2.000000
                       2.000000  2.000000  2.000000  2.000000  2.000000  2.000000
                       2.000000  2.000000  2.000000  2.000000  0.000000  0.000000
                       0.000000  0.000000
                       2.000000  2.000000  2.000000  2.000000  2.000000  2.000000
                       2.000000  2.000000  2.000000  2.000000  2.000000  2.000000
                       2.000000  2.000000  2.000000  2.000000  2.000000  2.000000
                       2.000000  2.000000  2.000000  2.000000  0.000000  0.000000
                       0.000000  0.000000
                       2.000000  2.000000  2.000000  2.000000  2.000000  2.000000
                       2.000000  2.000000  2.000000  2.000000  2.000000  2.000000
                       2.000000  2.000000  2.000000  2.000000  2.000000  2.000000
                       2.000000  2.000000  2.000000  2.000000  0.000000  0.000000
                       0.000000  0.000000
                       2.000000  2.000000  2.000000  2.000000  2.000000  2.000000
                       2.000000  2.000000  2.000000  2.000000  2.000000  2.000000
                       2.000000  2.000000  2.000000  2.000000  2.000000  2.000000
                       2.000000  2.000000  2.000000  2.000000  0.000000  0.000000
                       0.000000  0.000000
                       2.000000  2.000000  2.000000  2.000000  2.000000  2.000000
                       2.000000  2.000000  2.000000  2.000000  2.000000  2.000000
                       2.000000  2.000000  2.000000  2.000000  2.000000  2.000000
                       2.000000  2.000000  2.000000  2.000000  0.000000  0.000000
                       0.000000  0.000000
                       2.000000  2.000000  2.000000  2.000000  2.000000  2.000000
                       2.000000  2.000000  2.000000  2.000000  2.000000  2.000000
                       2.000000  2.000000  2.000000  2.000000  2.000000  2.000000
                       2.000000  2.000000  2.000000  2.000000  0.000000  0.000000
                       0.000000  0.000000
                       2.000000  2.000000  2.000000  2.000000  2.000000  2.000000
                       2.000000  2.000000  2.000000  2.000000  2.000000  2.000000
                       2.000000  2.000000  2.000000  2.000000  2.000000  2.000000
                       2.000000  2.000000  2.000000  2.000000  0.000000  0.000000
                       0.000000  0.000000
                       2.000000  2.000000  2.000000  2.000000  2.000000  2.000000
                       2.000000  2.000000  2.000000  2.000000  2.000000  2.000000
                       2.000000  2.000000  2.000000  2.000000  2.000000  2.000000
                       2.000000  2.000000  2.000000  2.000000  0.000000  0.000000
                       0.000000  0.000000
                       2.000000  2.000000  2.000000  2.000000  2.000000  2.000000
[...]
                       2.000000  2.000000  2.000000  2.000000  2.000000  2.000000
                       2.000000  2.000000  2.000000  2.000000  2.000000  2.000000
                       2.000000  2.000000  2.000000  2.000000  2.000000  2.000000
                       2.000000  2.000000  2.000000  2.000000  0.000000  0.000000
                       0.000000  0.000000
                       2.000000  2.000000  2.000000  2.000000  2.000000  2.000000
                       2.000000  2.000000  2.000000  2.000000  2.000000  2.000000
                       2.000000  2.000000  2.000000  2.000000  2.000000  2.000000
                       2.000000  2.000000  2.000000  2.000000  0.000000  0.000000
                       0.000000  0.000000
                       2.000000  2.000000  2.000000  2.000000  2.000000  2.000000
                       2.000000  2.000000  2.000000  2.000000  2.000000  2.000000
                       2.000000  2.000000  2.000000  2.000000  2.000000  2.000000
                       2.000000  2.000000  2.000000  2.000000  0.000000  0.000000
                       0.000000  0.000000
           occopt           3
        optforces           1
           prtden           0
          spgroup           1
           toldff      5.00000000E-05
           tolmxf      0.00000000E+00
           tsmear      1.00000000E-03 Hartree
            typat      1  1  1  1  2  2  2  2
              wtk        0.01852    0.03704    0.03704    0.03704    0.03704    0.03704
                         0.03704    0.03704    0.03704    0.03704    0.03704    0.03704
                         0.03704    0.03704    0.03704    0.03704    0.03704    0.03704
                         0.03704    0.03704    0.03704    0.03704    0.03704    0.03704
                         0.03704    0.03704    0.03704    0.01852
           xangst      0.0000000000E+00  0.0000000000E+00  0.0000000000E+00
                       2.0815000000E+00  1.2745090627E-16  2.0815000000E+00
                       2.5490181255E-16  2.0815000000E+00  2.0815000000E+00
                       2.0815000000E+00  2.0815000000E+00  0.0000000000E+00
                       2.0815000000E+00  0.0000000000E+00  0.0000000000E+00
[...]
                       4.2265564181E-03 -2.2003896772E-03  2.1662688149E-03
                       4.3694712079E-05 -2.2527493494E-03 -3.7104440211E-03
                      -2.7417917616E-05  8.8668174429E-04 -9.3313323533E-03
                      -1.6894276692E-03 -2.0948476681E-03 -5.1856852462E-04
                       6.0336180125E-04  5.8997642134E-03 -3.7125271859E-04
-          fftalg         112
           ionmov           9
           istwfk        2    0    0    0    0    0    0    0    0    0
                         0    0    0    0    0    0    0    0    0    0
                         0    0    0    0    0    0    0    9
              ixc          11
              kpt      0.00000000E+00  0.00000000E+00  0.00000000E+00
                       0.00000000E+00  0.00000000E+00  3.33333333E-01
                       0.00000000E+00  3.33333333E-01  0.00000000E+00
                       3.33333333E-01  0.00000000E+00  0.00000000E+00
                       1.66666667E-01  1.66666667E-01  1.66666667E-01
                       0.00000000E+00  3.33333333E-01  3.33333333E-01
                       3.33333333E-01  0.00000000E+00  3.33333333E-01
                       1.66666667E-01  1.66666667E-01  5.00000000E-01
                       0.00000000E+00  3.33333333E-01 -3.33333333E-01
                       3.33333333E-01  0.00000000E+00 -3.33333333E-01
                       1.66666667E-01  1.66666667E-01 -1.66666667E-01
                       3.33333333E-01  3.33333333E-01  0.00000000E+00
                       1.66666667E-01  5.00000000E-01  1.66666667E-01
                       5.00000000E-01  1.66666667E-01  1.66666667E-01
                       3.33333333E-01  3.33333333E-01  3.33333333E-01
                       1.66666667E-01  5.00000000E-01  5.00000000E-01
                       5.00000000E-01  1.66666667E-01  5.00000000E-01
                       3.33333333E-01  3.33333333E-01 -3.33333333E-01
                       1.66666667E-01  5.00000000E-01 -1.66666667E-01
                       5.00000000E-01  1.66666667E-01 -1.66666667E-01
                       3.33333333E-01 -3.33333333E-01  0.00000000E+00
                       1.66666667E-01 -1.66666667E-01  1.66666667E-01
                       5.00000000E-01  5.00000000E-01  1.66666667E-01
                       3.33333333E-01 -3.33333333E-01  3.33333333E-01
                       1.66666667E-01 -1.66666667E-01  5.00000000E-01
                      -1.66666667E-01  1.66666667E-01  1.66666667E-01
                      -3.33333333E-01  3.33333333E-01  3.33333333E-01
                       5.00000000E-01  5.00000000E-01  5.00000000E-01
         kptrlatt        0    3    3      3    0    3      3    3    0
          kptrlen      3.33765568E+01
P           mkmem          28
            natom           8
            nband          26
            ngfft          48      48      48
             nkpt          28
            nline           6
            nstep         500
             nsym           1
            ntime         800
           ntypat           2
              occ      2.000000  2.000000  2.000000  2.000000  2.000000  2.000000
                       2.000000  2.000000  2.000000  2.000000  2.000000  2.000000
                       2.000000  2.000000  2.000000  2.000000  2.000000  2.000000
                       2.000000  2.000000  2.000000  0.000000  0.000000  0.000000
                       0.000000  0.000000
                       2.000000  2.000000  2.000000  2.000000  2.000000  2.000000
                       2.000000  2.000000  2.000000  2.000000  2.000000  2.000000
                       2.000000  2.000000  2.000000  2.000000  2.000000  2.000000
                       2.000000  2.000000  2.000000  2.000000  0.000000  0.000000
                       0.000000  0.000000
                       2.000000  2.000000  2.000000  2.000000  2.000000  2.000000
                       2.000000  2.000000  2.000000  2.000000  2.000000  2.000000
                       2.000000  2.000000  2.000000  2.000000  2.000000  2.000000
                       2.000000  2.000000  2.000000  2.000000  0.000000  0.000000
                       0.000000  0.000000
                       2.000000  2.000000  2.000000  2.000000  2.000000  2.000000
                       2.000000  2.000000  2.000000  2.000000  2.000000  2.000000
                       2.000000  2.000000  2.000000  2.000000  2.000000  2.000000
                       2.000000  2.000000  2.000000  2.000000  0.000000  0.000000
                       0.000000  0.000000
                       2.000000  2.000000  2.000000  2.000000  2.000000  2.000000
                       2.000000  2.000000  2.000000  2.000000  2.000000  2.000000
                       2.000000  2.000000  2.000000  2.000000  2.000000  2.000000
                       2.000000  2.000000  2.000000  0.000000  0.000000  0.000000
                       0.000000  0.000000
                       2.000000  2.000000  2.000000  2.000000  2.000000  2.000000
                       2.000000  2.000000  2.000000  2.000000  2.000000  2.000000
                       2.000000  2.000000  2.000000  2.000000  2.000000  2.000000
                       2.000000  2.000000  2.000000  0.098987  0.000388  0.000000
                       0.000000  0.000000
                       2.000000  2.000000  2.000000  2.000000  2.000000  2.000000
                       2.000000  2.000000  2.000000  2.000000  2.000000  2.000000
                       2.000000  2.000000  2.000000  2.000000  2.000000  2.000000
                       2.000000  2.000000  2.000000  0.555360  0.000001  0.000000
                       0.000000  0.000000
                       2.000000  2.000000  2.000000  2.000000  2.000000  2.000000
                       2.000000  2.000000  2.000000  2.000000  2.000000  2.000000
                       2.000000  2.000000  2.000000  2.000000  2.000000  2.000000
                       2.000000  2.000000  2.000000  2.000000  0.000000  0.000000
                       0.000000  0.000000
                       2.000000  2.000000  2.000000  2.000000  2.000000  2.000000
                       2.000000  2.000000  2.000000  2.000000  2.000000  2.000000
                       2.000000  2.000000  2.000000  2.000000  2.000000  2.000000
                       2.000000  2.000000  2.000000  1.955020  0.000000  0.000000
                       0.000000  0.000000
                       2.000000  2.000000  2.000000  2.000000  2.000000  2.000000
                       2.000000  2.000000  2.000000  2.000000  2.000000  2.000000
                       2.000000  2.000000  2.000000  2.000000  2.000000  2.000000
                       2.000000  2.000000  2.000000  0.073037  0.000071  0.000000
                       0.000000  0.000000
                       2.000000  2.000000  2.000000  2.000000  2.000000  2.000000
                       2.000000  2.000000  2.000000  2.000000  2.000000  2.000000
                       2.000000  2.000000  2.000000  2.000000  2.000000  2.000000
                       2.000000  2.000000  2.000000  0.000000  0.000000  0.000000
                       0.000000  0.000000
                       2.000000  2.000000  2.000000  2.000000  2.000000  2.000000
                       2.000000  2.000000  2.000000  2.000000  2.000000  2.000000
                       2.000000  2.000000  2.000000  2.000000  2.000000  2.000000
                       2.000000  2.000000  2.000000  0.113084  0.000012  0.000000
                       0.000000  0.000000
                       2.000000  2.000000  2.000000  2.000000  2.000000  2.000000
[...]
                       2.000000  2.000000  2.000000  2.000000  2.000000  2.000000
                       2.000000  2.000000  2.000000  2.000000  2.000000  2.000000
                       2.000000  2.000000  2.000000  2.000000  2.000000  2.000000
                       2.000000  2.000000  2.000000  0.000000  0.000000  0.000000
                       0.000000  0.000000
                       2.000000  2.000000  2.000000  2.000000  2.000000  2.000000
                       2.000000  2.000000  2.000000  2.000000  2.000000  2.000000
                       2.000000  2.000000  2.000000  2.000000  2.000000  2.000000
                       2.000000  2.000000  2.000000  1.999679  1.960050  0.190910
                       0.000000  0.000000
                       2.000000  2.000000  2.000000  2.000000  2.000000  2.000000
                       2.000000  2.000000  2.000000  2.000000  2.000000  2.000000
                       2.000000  2.000000  2.000000  2.000000  2.000000  2.000000
                       2.000000  2.000000  2.000000  2.000000  2.000000  2.000000
                       0.000000  0.000000
           occopt           3
        optforces           1
           prtden           0
          spgroup           1
           strten     -6.8574776250E-05 -1.1960901747E-04 -1.7457687124E-04
                      -3.4220988037E-06  6.3410006047E-07 -4.3437961226E-06
           toldff      5.00000000E-05
           tolmxf      0.00000000E+00
           tsmear      1.00000000E-03 Hartree
            typat      1  1  1  1  2  2  2  2
              vel     -1.0585105975E-04  1.9552006682E-05 -6.9179969899E-05
                       8.7930677923E-06  4.1053102131E-05 -6.7341580076E-05
                       9.5296124642E-05 -3.3024516778E-05 -1.9521227142E-05
                       8.6099589238E-06  4.9104263614E-05 -5.8859445592E-05
                       1.6916388394E-04 -2.1850494800E-04 -3.5132933791E-04
                       9.7730124010E-04  2.6387185091E-04  1.2860139035E-03
                       2.9496709115E-04  1.1211174301E-04  3.7336443092E-05
                      -5.7636614884E-04 -1.2287630889E-03 -2.4531252061E-04
              wtk        0.01852    0.03704    0.03704    0.03704    0.03704    0.03704
                         0.03704    0.03704    0.03704    0.03704    0.03704    0.03704
                         0.03704    0.03704    0.03704    0.03704    0.03704    0.03704
                         0.03704    0.03704    0.03704    0.03704    0.03704    0.03704
                         0.03704    0.03704    0.03704    0.01852
           xangst     -6.2340531050E-02  1.6695769688E-03  6.6643051277E-02
                       2.1214028136E+00  4.6406850782E-02  2.1198574391E+00
                      -2.8283760544E-02  2.1826990515E+00  2.1927257157E+00
                       2.0020683555E+00  2.1454335343E+00  1.2692864660E-01
                       1.9722437352E+00  2.8080828273E-01  3.5837529548E-01
                      -2.2809021820E+00  1.9502649760E+00  2.5868244353E+00
                       1.3589745523E-01  1.7767053714E-03  2.1970395845E+00
                      -2.3082154581E-01  1.7927972864E+00  3.9915018509E-02
            xcart     -1.1780653066E-01  3.1550432288E-03  1.2593711557E-01
                       4.0088703352E+00  8.7696238668E-02  4.0059500007E+00
                      -5.3448561436E-02  4.1247034378E+00  4.1436510871E+00
                       3.7833608913E+00  4.0542818161E+00  2.3986038049E-01
                       3.7270005268E+00  5.3065075020E-01  6.7723116126E-01
                      -4.3102804598E+00  3.6854666911E+00  4.8883897365E+00
                       2.5680897254E-01  3.3574865707E-03  4.1518031178E+00
                      -4.3618950714E-01  3.3878958832E+00  7.5428453571E-02
             xred     -1.4974905369E-02  4.0105139774E-04  1.6008419716E-02
                       5.0958511016E-01  1.1147453947E-02  5.0921389361E-01
                      -6.7940813221E-03  5.2430916441E-01  5.2671768332E-01
                       4.8091961459E-01  5.1535756288E-01  3.0489706126E-02
                       4.7375540120E-01  6.7453346800E-02  8.6085826444E-02
                      -5.4789867451E-01  4.6847585298E-01  6.2138468299E-01
                       3.2644116078E-02  4.2678485981E-04  5.2775392373E-01
                      -5.5445963441E-02  4.3065032103E-01  9.5880419190E-03
            znucl       46.00000    1.00000

-
-  as well as % of the time and number of calls for node 0-
-<BEGIN_TIMER mpi_nprocs = 1, omp_nthreads = 1, mpi_rank = 0>
- cpu_time =       324909.2, wall_time =       325263.6
-
-                                                                  (-1=no count)
- fourwf%(pot)              132383.431  40.7 132929.538  40.9       37184213      -1.00
- nonlop(apply)              92982.759  28.6  91392.178  28.1       37184213      -1.00
- projbd                     40591.065  12.5  43934.675  13.5       62702954      -1.00
- nonlop(forces)             18401.778   5.7  18514.519   5.7        4667936      -1.00
- fourwf%(den)                7029.808   2.2   7103.949   2.2        4056461      -1.00
- vtowfk(ssdiag)              6069.467   1.9   6117.600   1.9             -1      -1.00
- getghc-other                4877.327   1.5   3740.370   1.1             -1      -1.00
- nonlop(forstr)              2046.537   0.6   2065.354   0.6         506126      -1.00
- others (97)                 1368.145   0.4   1199.127   0.4             -1      -1.00
-<END_TIMER>
-
- subtotal                  305750.316  94.1 306997.310  94.4

- as well as % of the total time and number of calls

-<BEGIN_TIMER mpi_nprocs = 1, omp_nthreads = 1, mpi_rank = world>
- cpu_time =      324909.2, wall_time =      325263.6
-
-                                                                  (-1=no count)
- fourwf%(pot)              132383.431  40.7 132929.538  40.9       37184213      -1.00
- nonlop(apply)              92982.759  28.6  91392.178  28.1       37184213      -1.00
- projbd                     40591.065  12.5  43934.675  13.5       62702954      -1.00
- nonlop(forces)             18401.778   5.7  18514.519   5.7        4667936      -1.00
- fourwf%(den)                7029.808   2.2   7103.949   2.2        4056461      -1.00
- vtowfk(ssdiag)              6069.467   1.9   6117.600   1.9             -1      -1.00
- getghc-other                4877.327   1.5   3740.370   1.1             -1      -1.00
- nonlop(forstr)              2046.537   0.6   2065.354   0.6         506126      -1.00
- others (97)                 1368.145   0.4   1199.127   0.4             -1      -1.00
-<END_TIMER>

- subtotal                  305750.316  94.1 306997.310  94.4

 Suggested references for the acknowledgment of ABINIT usage.

 [1] Ab initio pseudopotentials for electronic structure calculations of poly-atomic systems,
 using density-functional theory.
 M. Fuchs, M. Scheffler, Comput. Phys. Commun. 119, 67 (1999).
 Comment : Some pseudopotential generated using the FHI code were used.

 [2] ABINIT : First-principles approach of materials and nanosystem properties.
 X. Gonze, B. Amadon, P.-M. Anglade, J.-M. Beuken, F. Bottin, P. Boulanger, F. Bruneval,
 D. Caliste, R. Caracas, M. Cote, T. Deutsch, L. Genovese, Ph. Ghosez, M. Giantomassi
 S. Goedecker, D.R. Hamann, P. Hermet, F. Jollet, G. Jomard, S. Leroux, M. Mancini, S. Mazevet,
 M.J.T. Oliveira, G. Onida, Y. Pouillon, T. Rangel, G.-M. Rignanese, D. Sangalli, R. Shaltaf,
 M. Torrent, M.J. Verstraete, G. Zerah, J.W. Zwanziger
 Computer Phys. Comm. 180, 2582-2615 (2009).
 Comment : the third generic paper describing the ABINIT project.
 Note that a version of this paper, that is not formatted for Computer Phys. Comm.
 The licence allows the authors to put it on the Web.

 [3] A brief introduction to the ABINIT software package.
 X. Gonze, G.-M. Rignanese, M. Verstraete, J.-M. Beuken, Y. Pouillon, R. Caracas, F. Jollet,
 M. Torrent, G. Zerah, M. Mikami, Ph. Ghosez, M. Veithen, J.-Y. Raty, V. Olevano, F. Bruneval,
 L. Reining, R. Godby, G. Onida, D.R. Hamann, and D.C. Allan.
 Z. Kristallogr. 220, 558-562 (2005).
 Comment : the second generic paper describing the ABINIT project. Note that this paper
 should be cited especially if you are using the GW part of ABINIT, as several authors
 of this part are not in the list of authors of the first or third paper.
 Note that it should not redistributed (Copyright by Oldenburg Wissenshaftverlag,
 the licence allows the authors to put it on the Web).

 And optionally :

 [4] First-principles computation of material properties : the ABINIT software project.
 X. Gonze, J.-M. Beuken, R. Caracas, F. Detraux, M. Fuchs, G.-M. Rignanese, L. Sindic,
 M. Verstraete, G. Zerah, F. Jollet, M. Torrent, A. Roy, M. Mikami, Ph. Ghosez, J.-Y. Raty, D.C. Allan.
 Comment : the original paper describing the ABINIT project.

 [5] Fast radix 2, 3, 4 and 5 kernels for Fast Fourier Transformations
 on computers with overlapping multiply-add instructions.
 S. Goedecker, SIAM J. on Scientific Computing 18, 1605 (1997).
-

 Calculation completed.
.Delivered    1 WARNINGs and   3 COMMENTs to log file.